NAME          
ROWS
 N  OBJ
 L  c1
COLUMNS
    MARKER    'MARKER'                 'INTORG'
    x[1]      c1        65
    x[1]      OBJ       -863
    x[2]      c1        119
    x[2]      OBJ       -583
    x[3]      c1        92
    x[3]      OBJ       -274
    x[4]      c1        193
    x[4]      OBJ       -457
    x[5]      c1        818
    x[5]      OBJ       -352
    x[6]      c1        408
    x[6]      OBJ       -71
    x[7]      c1        358
    x[7]      OBJ       -22
    x[8]      c1        412
    x[8]      OBJ       -824
    x[9]      c1        951
    x[9]      OBJ       -374
    x[10]     c1        111
    x[10]     OBJ       -670
    x[11]     c1        631
    x[11]     OBJ       -624
    x[12]     c1        240
    x[12]     OBJ       -345
    x[13]     c1        986
    x[13]     OBJ       -862
    x[14]     c1        609
    x[14]     OBJ       -773
    x[15]     c1        148
    x[15]     OBJ       -117
    x[16]     c1        601
    x[16]     OBJ       -863
    x[17]     c1        345
    x[17]     OBJ       -501
    x[18]     c1        779
    x[18]     OBJ       -790
    x[19]     c1        84
    x[19]     OBJ       -188
    x[20]     c1        12
    x[20]     OBJ       -847
    x[21]     c1        658
    x[21]     OBJ       -471
    x[22]     c1        193
    x[22]     OBJ       -527
    x[23]     c1        798
    x[23]     OBJ       -481
    x[24]     c1        285
    x[24]     OBJ       -829
    x[25]     c1        925
    x[25]     OBJ       -493
    x[26]     c1        661
    x[26]     OBJ       -910
    x[27]     c1        201
    x[27]     OBJ       -55
    x[28]     c1        941
    x[28]     OBJ       -174
    x[29]     c1        588
    x[29]     OBJ       -933
    x[30]     c1        52
    x[30]     OBJ       -900
    x[31]     c1        86
    x[31]     OBJ       -489
    x[32]     c1        795
    x[32]     OBJ       -77
    x[33]     c1        470
    x[33]     OBJ       -47
    x[34]     c1        383
    x[34]     OBJ       -331
    x[35]     c1        741
    x[35]     OBJ       -628
    x[36]     c1        311
    x[36]     OBJ       -260
    x[37]     c1        397
    x[37]     OBJ       -443
    x[38]     c1        836
    x[38]     OBJ       -558
    x[39]     c1        66
    x[39]     OBJ       -682
    x[40]     c1        427
    x[40]     OBJ       -303
    x[41]     c1        519
    x[41]     OBJ       -273
    x[42]     c1        583
    x[42]     OBJ       -868
    x[43]     c1        591
    x[43]     OBJ       -220
    x[44]     c1        37
    x[44]     OBJ       -165
    x[45]     c1        393
    x[45]     OBJ       -182
    x[46]     c1        309
    x[46]     OBJ       -878
    x[47]     c1        65
    x[47]     OBJ       -357
    x[48]     c1        751
    x[48]     OBJ       -434
    x[49]     c1        614
    x[49]     OBJ       -753
    x[50]     c1        452
    x[50]     OBJ       -147
RHS
    rhs       c1        11045
RANGES
BOUNDS
 BV bounds    x[1]
 BV bounds    x[2]
 BV bounds    x[3]
 BV bounds    x[4]
 BV bounds    x[5]
 BV bounds    x[6]
 BV bounds    x[7]
 BV bounds    x[8]
 BV bounds    x[9]
 BV bounds    x[10]
 BV bounds    x[11]
 BV bounds    x[12]
 BV bounds    x[13]
 BV bounds    x[14]
 BV bounds    x[15]
 BV bounds    x[16]
 BV bounds    x[17]
 BV bounds    x[18]
 BV bounds    x[19]
 BV bounds    x[20]
 BV bounds    x[21]
 BV bounds    x[22]
 BV bounds    x[23]
 BV bounds    x[24]
 BV bounds    x[25]
 BV bounds    x[26]
 BV bounds    x[27]
 BV bounds    x[28]
 BV bounds    x[29]
 BV bounds    x[30]
 BV bounds    x[31]
 BV bounds    x[32]
 BV bounds    x[33]
 BV bounds    x[34]
 BV bounds    x[35]
 BV bounds    x[36]
 BV bounds    x[37]
 BV bounds    x[38]
 BV bounds    x[39]
 BV bounds    x[40]
 BV bounds    x[41]
 BV bounds    x[42]
 BV bounds    x[43]
 BV bounds    x[44]
 BV bounds    x[45]
 BV bounds    x[46]
 BV bounds    x[47]
 BV bounds    x[48]
 BV bounds    x[49]
 BV bounds    x[50]
ENDATA
